NAME : ClusterId_82 
COMMENT : (Gillet and Johnson) 
TYPE : CVRP 
DIMENSION : 50 
EDGE_WEIGHT_TYPE : EUC_2D 
CAPACITY : 60 
NODE_COORD_SECTION 
82 110 0 
22 30 -30 
24 30 30 
23 30 0 
30 40 -40 
32 40 40 
49 90 -20 
51 90 20 
54 130 -20 
56 130 20 
57 80 -30 
59 80 30 
62 140 -30 
64 140 30 
65 70 -40 
67 70 40 
70 150 -40 
72 150 40 
78 160 -50 
80 160 50 
31 40 0 
38 50 -50 
39 50 0 
40 50 50 
41 100 -10 
42 100 0 
43 100 10 
44 110 -10 
45 110 10 
46 120 -10 
47 120 0 
48 120 10 
50 90 0 
52 110 -20 
53 110 20 
55 130 0 
58 80 0 
60 110 -30 
61 110 30 
63 140 0 
66 70 0 
68 110 -40 
69 110 40 
71 150 0 
73 60 -50 
74 60 0 
75 60 50 
76 110 -50 
77 110 50 
79 160 0 
DEMAND_SECTION 
82 2590
22 4
24 4
23 4
30 2
32 2
49 8
51 8
54 8
56 8
57 4
59 4
62 4
64 4
65 2
67 2
70 2
72 2
78 1
80 1
31 2
38 1
39 1
40 1
41 12
42 12
43 12
44 12
45 12
46 12
47 12
48 12
50 8
52 8
53 8
55 8
58 4
60 4
61 4
63 4
66 2
68 2
69 2
71 2
73 1
74 1
75 1
76 1
77 1
79 1
DEPOT_SECTION 
82
 -1
EOF